61
1 0 13
2 0 20
2 1 46
3 0 21
3 1 24
3 2 4
4 0 7
4 1 56
4 2 20
4 3 8
5 0 38
5 1 22
5 2 29
5 3 18
5 4 34
6 0 35
6 1 57
6 2 47
6 3 44
6 4 40
6 5 38
7 0 52
7 1 46
7 2 22
7 3 3
7 4 7
7 5 5
7 6 54
8 0 27
8 1 24
8 2 13
8 3 5
8 4 46
8 5 37
8 6 46
8 7 28
9 0 35
9 1 46
9 2 6
9 3 47
9 4 53
9 5 57
9 6 5
9 7 57
9 8 47
10 0 21
10 1 12
10 2 8
10 3 15
10 4 1
10 5 19
10 6 40
10 7 12
10 8 56
10 9 15
11 0 12
11 1 52
11 2 42
11 3 25
11 4 9
11 5 48
11 6 28
11 7 42
11 8 36
11 9 23
11 10 41
12 0 37
12 1 45
12 2 51
12 3 22
12 4 14
12 5 19
12 6 4
12 7 48
12 8 22
12 9 36
12 10 9
12 11 27
13 0 26
13 1 54
13 2 27
13 3 25
13 4 30
13 5 5
13 6 45
13 7 7
13 8 30
13 9 24
13 10 8
13 11 9
13 12 50
14 0 54
14 1 41
14 2 15
14 3 55
14 4 6
14 5 9
14 6 55
14 7 56
14 8 13
14 9 8
14 10 5
14 11 13
14 12 55
14 13 17
15 0 49
15 1 3
15 2 15
15 3 44
15 4 26
15 5 32
15 6 19
15 7 52
15 8 48
15 9 21
15 10 51
15 11 4
15 12 55
15 13 33
15 14 46
16 0 15
16 1 34
16 2 45
16 3 35
16 4 16
16 5 46
16 6 12
16 7 39
16 8 41
16 9 15
16 10 38
16 11 52
16 12 29
16 13 15
16 14 22
16 15 26
17 0 25
17 1 5
17 2 47
17 3 36
17 4 27
17 5 57
17 6 49
17 7 56
17 8 49
17 9 7
17 10 4
17 11 24
17 12 25
17 13 50
17 14 1
17 15 36
17 16 33
18 0 44
18 1 43
18 2 20
18 3 40
18 4 43
18 5 47
18 6 6
18 7 11
18 8 24
18 9 43
18 10 26
18 11 19
18 12 39
18 13 30
18 14 11
18 15 27
18 16 48
18 17 34
19 0 28
19 1 29
19 2 5
19 3 38
19 4 19
19 5 27
19 6 46
19 7 56
19 8 39
19 9 52
19 10 24
19 11 53
19 12 4
19 13 1
19 14 23
19 15 24
19 16 39
19 17 56
19 18 46
20 0 6
20 1 8
20 2 3
20 3 29
20 4 21
20 5 24
20 6 4
20 7 55
20 8 53
20 9 40
20 10 27
20 11 3
20 12 18
20 13 13
20 14 22
20 15 22
20 16 15
20 17 4
20 18 44
20 19 23
21 0 27
21 1 49
21 2 5
21 3 38
21 4 43
21 5 32
21 6 2
21 7 30
21 8 28
21 9 50
21 10 53
21 11 57
21 12 12
21 13 55
21 14 3
21 15 20
21 16 34
21 17 38
21 18 8
21 19 2
21 20 14
22 0 57
22 1 31
22 2 42
22 3 48
22 4 4
22 5 52
22 6 42
22 7 39
22 8 26
22 9 25
22 10 48
22 11 48
22 12 36
22 13 56
22 14 38
22 15 16
22 16 18
22 17 32
22 18 55
22 19 30
22 20 16
22 21 1
23 0 13
23 1 4
23 2 32
23 3 6
23 4 48
23 5 24
23 6 45
23 7 53
23 8 24
23 9 19
23 10 2
23 11 37
23 12 22
23 13 54
23 14 36
23 15 56
23 16 25
23 17 41
23 18 43
23 19 49
23 20 50
23 21 13
23 22 35
24 0 2
24 1 48
24 2 24
24 3 33
24 4 48
24 5 41
24 6 53
24 7 47
24 8 19
24 9 36
24 10 20
24 11 6
24 12 12
24 13 24
24 14 36
24 15 31
24 16 34
24 17 44
24 18 11
24 19 1
24 20 31
24 21 18
24 22 9
24 23 15
25 0 33
25 1 42
25 2 47
25 3 40
25 4 49
25 5 27
25 6 31
25 7 44
25 8 50
25 9 22
25 10 16
25 11 10
25 12 24
25 13 19
25 14 48
25 15 23
25 16 25
25 17 52
25 18 12
25 19 23
25 20 19
25 21 26
25 22 40
25 23 12
25 24 3
26 0 12
26 1 54
26 2 53
26 3 43
26 4 11
26 5 38
26 6 26
26 7 34
26 8 13
26 9 54
26 10 45
26 11 45
26 12 15
26 13 17
26 14 47
26 15 23
26 16 39
26 17 54
26 18 47
26 19 54
26 20 20
26 21 57
26 22 12
26 23 19
26 24 48
26 25 21
27 0 18
27 1 19
27 2 38
27 3 40
27 4 3
27 5 47
27 6 41
27 7 36
27 8 49
27 9 21
27 10 17
27 11 15
27 12 14
27 13 46
27 14 11
27 15 28
27 16 45
27 17 17
27 18 50
27 19 34
27 20 38
27 21 30
27 22 39
27 23 22
27 24 35
27 25 13
27 26 42
28 0 39
28 1 13
28 2 15
28 3 36
28 4 53
28 5 5
28 6 52
28 7 26
28 8 13
28 9 38
28 10 56
28 11 33
28 12 10
28 13 27
28 14 1
28 15 4
28 16 11
28 17 37
28 18 42
28 19 7
28 20 12
28 21 5
28 22 16
28 23 23
28 24 57
28 25 40
28 26 10
28 27 21
29 0 26
29 1 18
29 2 55
29 3 11
29 4 36
29 5 35
29 6 44
29 7 20
29 8 15
29 9 49
29 10 24
29 11 26
29 12 16
29 13 25
29 14 2
29 15 44
29 16 17
29 17 17
29 18 46
29 19 23
29 20 8
29 21 2
29 22 34
29 23 56
29 24 8
29 25 7
29 26 46
29 27 44
29 28 26
30 0 21
30 1 10
30 2 6
30 3 42
30 4 51
30 5 46
30 6 38
30 7 51
30 8 3
30 9 25
30 10 16
30 11 1
30 12 55
30 13 49
30 14 43
30 15 12
30 16 50
30 17 48
30 18 24
30 19 22
30 20 16
30 21 5
30 22 6
30 23 2
30 24 33
30 25 8
30 26 44
30 27 25
30 28 44
30 29 57
31 0 10
31 1 9
31 2 25
31 3 8
31 4 2
31 5 23
31 6 49
31 7 8
31 8 39
31 9 47
31 10 15
31 11 55
31 12 23
31 13 50
31 14 25
31 15 41
31 16 28
31 17 33
31 18 8
31 19 29
31 20 5
31 21 25
31 22 6
31 23 31
31 24 17
31 25 5
31 26 33
31 27 38
31 28 45
31 29 21
31 30 45
32 0 56
32 1 28
32 2 29
32 3 26
32 4 24
32 5 32
32 6 12
32 7 37
32 8 5
32 9 47
32 10 51
32 11 16
32 12 51
32 13 43
32 14 35
32 15 19
32 16 52
32 17 7
32 18 4
32 19 17
32 20 19
32 21 18
32 22 54
32 23 33
32 24 55
32 25 46
32 26 31
32 27 55
32 28 44
32 29 7
32 30 9
32 31 10
33 0 40
33 1 36
33 2 56
33 3 12
33 4 54
33 5 38
33 6 22
33 7 4
33 8 21
33 9 3
33 10 37
33 11 57
33 12 39
33 13 46
33 14 52
33 15 11
33 16 41
33 17 50
33 18 24
33 19 51
33 20 36
33 21 53
33 22 46
33 23 8
33 24 12
33 25 35
33 26 40
33 27 38
33 28 24
33 29 3
33 30 51
33 31 33
33 32 54
34 0 56
34 1 3
34 2 1
34 3 10
34 4 23
34 5 27
34 6 42
34 7 11
34 8 8
34 9 36
34 10 27
34 11 29
34 12 55
34 13 15
34 14 24
34 15 35
34 16 10
34 17 19
34 18 10
34 19 42
34 20 28
34 21 12
34 22 8
34 23 4
34 24 12
34 25 46
34 26 54
34 27 44
34 28 23
34 29 28
34 30 44
34 31 8
34 32 49
34 33 5
35 0 13
35 1 2
35 2 12
35 3 17
35 4 24
35 5 11
35 6 9
35 7 12
35 8 20
35 9 11
35 10 51
35 11 53
35 12 41
35 13 14
35 14 57
35 15 19
35 16 39
35 17 48
35 18 41
35 19 34
35 20 19
35 21 14
35 22 1
35 23 51
35 24 54
35 25 1
35 26 1
35 27 30
35 28 55
35 29 19
35 30 45
35 31 17
35 32 34
35 33 41
35 34 22
36 0 50
36 1 25
36 2 19
36 3 44
36 4 35
36 5 18
36 6 6
36 7 52
36 8 47
36 9 25
36 10 15
36 11 21
36 12 43
36 13 28
36 14 53
36 15 48
36 16 29
36 17 16
36 18 11
36 19 46
36 20 44
36 21 57
36 22 27
36 23 6
36 24 12
36 25 16
36 26 5
36 27 4
36 28 33
36 29 39
36 30 41
36 31 27
36 32 16
36 33 8
36 34 46
36 35 39
37 0 39
37 1 24
37 2 8
37 3 29
37 4 22
37 5 2
37 6 18
37 7 37
37 8 31
37 9 43
37 10 39
37 11 3
37 12 30
37 13 40
37 14 4
37 15 5
37 16 50
37 17 1
37 18 16
37 19 41
37 20 12
37 21 6
37 22 18
37 23 2
37 24 24
37 25 17
37 26 35
37 27 39
37 28 31
37 29 14
37 30 52
37 31 4
37 32 51
37 33 34
37 34 29
37 35 34
37 36 31
38 0 27
38 1 52
38 2 2
38 3 15
38 4 56
38 5 21
38 6 52
38 7 10
38 8 53
38 9 32
38 10 31
38 11 10
38 12 56
38 13 27
38 14 3
38 15 37
38 16 33
38 17 18
38 18 33
38 19 52
38 20 46
38 21 7
38 22 13
38 23 37
38 24 18
38 25 2
38 26 55
38 27 14
38 28 54
38 29 40
38 30 3
38 31 34
38 32 34
38 33 16
38 34 53
38 35 52
38 36 33
38 37 45
39 0 40
39 1 46
39 2 16
39 3 53
39 4 22
39 5 8
39 6 17
39 7 43
39 8 55
39 9 56
39 10 50
39 11 31
39 12 26
39 13 29
39 14 40
39 15 46
39 16 49
39 17 19
39 18 3
39 19 26
39 20 37
39 21 6
39 22 15
39 23 25
39 24 3
39 25 3
39 26 34
39 27 23
39 28 20
39 29 53
39 30 8
39 31 6
39 32 52
39 33 30
39 34 30
39 35 43
39 36 49
39 37 31
39 38 10
40 0 30
40 1 18
40 2 48
40 3 43
40 4 37
40 5 45
40 6 2
40 7 46
40 8 12
40 9 8
40 10 3
40 11 48
40 12 20
40 13 6
40 14 10
40 15 19
40 16 28
40 17 28
40 18 39
40 19 20
40 20 43
40 21 18
40 22 1
40 23 53
40 24 47
40 25 32
40 26 6
40 27 13
40 28 57
40 29 28
40 30 28
40 31 6
40 32 39
40 33 21
40 34 1
40 35 48
40 36 14
40 37 22
40 38 32
40 39 51
41 0 31
41 1 52
41 2 48
41 3 3
41 4 37
41 5 19
41 6 22
41 7 23
41 8 36
41 9 21
41 10 18
41 11 48
41 12 20
41 13 17
41 14 4
41 15 13
41 16 41
41 17 40
41 18 50
41 19 9
41 20 44
41 21 37
41 22 12
41 23 12
41 24 35
41 25 15
41 26 20
41 27 6
41 28 52
41 29 12
41 30 16
41 31 51
41 32 44
41 33 42
41 34 16
41 35 26
41 36 52
41 37 51
41 38 46
41 39 32
41 40 31
42 0 15
42 1 41
42 2 36
42 3 33
42 4 34
42 5 4
42 6 45
42 7 36
42 8 42
42 9 36
42 10 41
42 11 20
42 12 51
42 13 2
42 14 37
42 15 2
42 16 18
42 17 34
42 18 13
42 19 6
42 20 43
42 21 28
42 22 27
42 23 23
42 24 14
42 25 21
42 26 40
42 27 17
42 28 9
42 29 28
42 30 10
42 31 42
42 32 37
42 33 37
42 34 9
42 35 7
42 36 43
42 37 5
42 38 13
42 39 25
42 40 48
42 41 30
43 0 22
43 1 1
43 2 19
43 3 17
43 4 4
43 5 54
43 6 31
43 7 22
43 8 4
43 9 56
43 10 26
43 11 25
43 12 17
43 13 26
43 14 31
43 15 25
43 16 38
43 17 26
43 18 49
43 19 27
43 20 16
43 21 24
43 22 22
43 23 34
43 24 13
43 25 51
43 26 54
43 27 1
43 28 24
43 29 2
43 30 25
43 31 1
43 32 3
43 33 55
43 34 5
43 35 12
43 36 56
43 37 28
43 38 56
43 39 6
43 40 56
43 41 22
43 42 6
44 0 12
44 1 32
44 2 19
44 3 38
44 4 2
44 5 48
44 6 22
44 7 23
44 8 36
44 9 54
44 10 23
44 11 3
44 12 44
44 13 23
44 14 51
44 15 24
44 16 36
44 17 52
44 18 4
44 19 30
44 20 43
44 21 24
44 22 14
44 23 41
44 24 44
44 25 10
44 26 52
44 27 6
44 28 44
44 29 18
44 30 41
44 31 13
44 32 39
44 33 14
44 34 41
44 35 53
44 36 48
44 37 47
44 38 23
44 39 16
44 40 35
44 41 43
44 42 4
44 43 24
45 0 3
45 1 22
45 2 8
45 3 50
45 4 23
45 5 19
45 6 57
45 7 5
45 8 25
45 9 30
45 10 38
45 11 32
45 12 40
45 13 5
45 14 23
45 15 18
45 16 2
45 17 42
45 18 48
45 19 31
45 20 26
45 21 42
45 22 31
45 23 22
45 24 34
45 25 35
45 26 57
45 27 31
45 28 39
45 29 9
45 30 11
45 31 44
45 32 43
45 33 26
45 34 32
45 35 50
45 36 28
45 37 45
45 38 54
45 39 33
45 40 48
45 41 57
45 42 38
45 43 10
45 44 19
46 0 16
46 1 6
46 2 11
46 3 55
46 4 40
46 5 57
46 6 18
46 7 39
46 8 56
46 9 48
46 10 12
46 11 1
46 12 5
46 13 47
46 14 7
46 15 40
46 16 51
46 17 54
46 18 24
46 19 41
46 20 46
46 21 55
46 22 15
46 23 31
46 24 17
46 25 32
46 26 14
46 27 31
46 28 32
46 29 14
46 30 42
46 31 30
46 32 45
46 33 50
46 34 3
46 35 3
46 36 46
46 37 42
46 38 46
46 39 56
46 40 7
46 41 38
46 42 3
46 43 37
46 44 25
46 45 25
47 0 17
47 1 56
47 2 23
47 3 39
47 4 1
47 5 2
47 6 4
47 7 47
47 8 30
47 9 38
47 10 8
47 11 1
47 12 31
47 13 3
47 14 24
47 15 48
47 16 28
47 17 32
47 18 31
47 19 19
47 20 17
47 21 1
47 22 15
47 23 44
47 24 36
47 25 26
47 26 41
47 27 56
47 28 33
47 29 46
47 30 26
47 31 23
47 32 5
47 33 14
47 34 13
47 35 54
47 36 1
47 37 5
47 38 34
47 39 19
47 40 16
47 41 19
47 42 19
47 43 48
47 44 35
47 45 27
47 46 36
48 0 18
48 1 3
48 2 1
48 3 46
48 4 40
48 5 44
48 6 48
48 7 13
48 8 51
48 9 12
48 10 24
48 11 19
48 12 34
48 13 41
48 14 26
48 15 5
48 16 5
48 17 36
48 18 27
48 19 23
48 20 19
48 21 4
48 22 22
48 23 55
48 24 9
48 25 34
48 26 17
48 27 56
48 28 49
48 29 35
48 30 36
48 31 32
48 32 43
48 33 53
48 34 44
48 35 29
48 36 37
48 37 13
48 38 33
48 39 14
48 40 54
48 41 9
48 42 28
48 43 42
48 44 5
48 45 10
48 46 11
48 47 42
49 0 30
49 1 35
49 2 47
49 3 51
49 4 24
49 5 21
49 6 29
49 7 18
49 8 26
49 9 28
49 10 24
49 11 41
49 12 3
49 13 6
49 14 48
49 15 14
49 16 26
49 17 49
49 18 45
49 19 42
49 20 21
49 21 42
49 22 16
49 23 39
49 24 36
49 25 40
49 26 20
49 27 28
49 28 35
49 29 46
49 30 4
49 31 39
49 32 27
49 33 38
49 34 35
49 35 56
49 36 36
49 37 11
49 38 56
49 39 46
49 40 43
49 41 13
49 42 41
49 43 5
49 44 32
49 45 33
49 46 48
49 47 49
49 48 44
50 0 15
50 1 6
50 2 4
50 3 16
50 4 4
50 5 54
50 6 5
50 7 27
50 8 1
50 9 41
50 10 14
50 11 53
50 12 2
50 13 28
50 14 30
50 15 10
50 16 47
50 17 4
50 18 40
50 19 10
50 20 9
50 21 12
50 22 56
50 23 48
50 24 47
50 25 6
50 26 55
50 27 27
50 28 43
50 29 43
50 30 2
50 31 4
50 32 32
50 33 42
50 34 3
50 35 5
50 36 5
50 37 19
50 38 34
50 39 44
50 40 44
50 41 14
50 42 12
50 43 15
50 44 13
50 45 12
50 46 33
50 47 19
50 48 47
50 49 24
51 0 9
51 1 55
51 2 43
51 3 20
51 4 12
51 5 38
51 6 21
51 7 25
51 8 56
51 9 46
51 10 57
51 11 52
51 12 20
51 13 36
51 14 40
51 15 30
51 16 30
51 17 36
51 18 11
51 19 57
51 20 22
51 21 21
51 22 23
51 23 25
51 24 30
51 25 10
51 26 6
51 27 11
51 28 15
51 29 56
51 30 35
51 31 38
51 32 3
51 33 29
51 34 35
51 35 15
51 36 3
51 37 14
51 38 28
51 39 19
51 40 50
51 41 25
51 42 43
51 43 47
51 44 38
51 45 30
51 46 26
51 47 6
51 48 7
51 49 45
51 50 40
52 0 5
52 1 3
52 2 39
52 3 33
52 4 31
52 5 37
52 6 28
52 7 12
52 8 25
52 9 29
52 10 27
52 11 40
52 12 29
52 13 1
52 14 43
52 15 5
52 16 21
52 17 41
52 18 36
52 19 45
52 20 8
52 21 56
52 22 53
52 23 56
52 24 3
52 25 34
52 26 29
52 27 53
52 28 45
52 29 32
52 30 21
52 31 15
52 32 15
52 33 56
52 34 33
52 35 34
52 36 25
52 37 47
52 38 15
52 39 14
52 40 2
52 41 12
52 42 15
52 43 33
52 44 18
52 45 57
52 46 7
52 47 29
52 48 35
52 49 24
52 50 41
52 51 8
53 0 45
53 1 29
53 2 26
53 3 28
53 4 8
53 5 50
53 6 2
53 7 50
53 8 24
53 9 9
53 10 4
53 11 14
53 12 40
53 13 47
53 14 15
53 15 46
53 16 34
53 17 24
53 18 32
53 19 28
53 20 55
53 21 30
53 22 51
53 23 7
53 24 56
53 25 45
53 26 17
53 27 36
53 28 17
53 29 47
53 30 12
53 31 10
53 32 40
53 33 6
53 34 43
53 35 22
53 36 28
53 37 43
53 38 56
53 39 9
53 40 23
53 41 12
53 42 20
53 43 12
53 44 49
53 45 49
53 46 9
53 47 57
53 48 52
53 49 23
53 50 28
53 51 13
53 52 2
54 0 24
54 1 52
54 2 2
54 3 47
54 4 14
54 5 12
54 6 6
54 7 4
54 8 24
54 9 30
54 10 39
54 11 44
54 12 7
54 13 1
54 14 28
54 15 17
54 16 27
54 17 41
54 18 6
54 19 28
54 20 18
54 21 18
54 22 12
54 23 29
54 24 24
54 25 51
54 26 46
54 27 38
54 28 39
54 29 2
54 30 8
54 31 45
54 32 56
54 33 42
54 34 10
54 35 30
54 36 48
54 37 51
54 38 46
54 39 43
54 40 54
54 41 40
54 42 1
54 43 9
54 44 9
54 45 43
54 46 39
54 47 24
54 48 31
54 49 55
54 50 57
54 51 43
54 52 51
54 53 36
55 0 16
55 1 31
55 2 14
55 3 8
55 4 7
55 5 25
55 6 31
55 7 56
55 8 41
55 9 24
55 10 46
55 11 31
55 12 1
55 13 1
55 14 3
55 15 24
55 16 15
55 17 17
55 18 47
55 19 16
55 20 26
55 21 16
55 22 17
55 23 42
55 24 24
55 25 20
55 26 17
55 27 35
55 28 22
55 29 27
55 30 32
55 31 29
55 32 47
55 33 53
55 34 56
55 35 29
55 36 27
55 37 56
55 38 3
55 39 48
55 40 38
55 41 36
55 42 30
55 43 15
55 44 6
55 45 21
55 46 40
55 47 46
55 48 5
55 49 40
55 50 27
55 51 12
55 52 37
55 53 41
55 54 39
56 0 54
56 1 2
56 2 2
56 3 13
56 4 46
56 5 33
56 6 57
56 7 26
56 8 28
56 9 57
56 10 36
56 11 29
56 12 32
56 13 30
56 14 6
56 15 28
56 16 41
56 17 18
56 18 36
56 19 3
56 20 21
56 21 18
56 22 44
56 23 23
56 24 50
56 25 20
56 26 49
56 27 49
56 28 45
56 29 4
56 30 1
56 31 47
56 32 20
56 33 10
56 34 50
56 35 19
56 36 37
56 37 54
56 38 43
56 39 44
56 40 25
56 41 7
56 42 28
56 43 22
56 44 32
56 45 19
56 46 37
56 47 41
56 48 13
56 49 1
56 50 55
56 51 9
56 52 51
56 53 24
56 54 18
56 55 55
57 0 13
57 1 57
57 2 29
57 3 41
57 4 33
57 5 17
57 6 44
57 7 1
57 8 54
57 9 13
57 10 30
57 11 38
57 12 15
57 13 27
57 14 4
57 15 4
57 16 23
57 17 8
57 18 6
57 19 13
57 20 29
57 21 52
57 22 20
57 23 32
57 24 26
57 25 30
57 26 24
57 27 40
57 28 15
57 29 23
57 30 1
57 31 47
57 32 6
57 33 16
57 34 8
57 35 10
57 36 12
57 37 30
57 38 19
57 39 43
57 40 34
57 41 41
57 42 51
57 43 33
57 44 35
57 45 1
57 46 5
57 47 41
57 48 31
57 49 54
57 50 48
57 51 10
57 52 57
57 53 28
57 54 42
57 55 17
57 56 45
58 0 28
58 1 55
58 2 10
58 3 12
58 4 50
58 5 39
58 6 23
58 7 18
58 8 5
58 9 50
58 10 54
58 11 24
58 12 55
58 13 51
58 14 11
58 15 55
58 16 41
58 17 2
58 18 15
58 19 26
58 20 45
58 21 41
58 22 18
58 23 2
58 24 47
58 25 32
58 26 12
58 27 6
58 28 4
58 29 4
58 30 1
58 31 49
58 32 44
58 33 39
58 34 4
58 35 42
58 36 29
58 37 44
58 38 31
58 39 8
58 40 27
58 41 23
58 42 51
58 43 51
58 44 11
58 45 15
58 46 25
58 47 22
58 48 14
58 49 55
58 50 5
58 51 13
58 52 43
58 53 29
58 54 2
58 55 56
58 56 50
58 57 42
59 0 35
59 1 18
59 2 39
59 3 13
59 4 56
59 5 25
59 6 50
59 7 35
59 8 13
59 9 53
59 10 23
59 11 21
59 12 52
59 13 12
59 14 53
59 15 49
59 16 20
59 17 9
59 18 34
59 19 48
59 20 2
59 21 45
59 22 38
59 23 41
59 24 2
59 25 53
59 26 2
59 27 30
59 28 7
59 29 17
59 30 23
59 31 11
59 32 23
59 33 25
59 34 51
59 35 35
59 36 7
59 37 20
59 38 21
59 39 38
59 40 18
59 41 54
59 42 32
59 43 3
59 44 21
59 45 26
59 46 52
59 47 45
59 48 32
59 49 30
59 50 43
59 51 29
59 52 23
59 53 36
59 54 6
59 55 7
59 56 2
59 57 5
59 58 17
60 0 19
60 1 13
60 2 37
60 3 18
60 4 5
60 5 37
60 6 29
60 7 11
60 8 2
60 9 23
60 10 24
60 11 17
60 12 32
60 13 13
60 14 51
60 15 11
60 16 46
60 17 27
60 18 56
60 19 9
60 20 53
60 21 5
60 22 54
60 23 51
60 24 30
60 25 8
60 26 44
60 27 48
60 28 43
60 29 28
60 30 35
60 31 13
60 32 48
60 33 48
60 34 18
60 35 31
60 36 45
60 37 55
60 38 38
60 39 21
60 40 40
60 41 12
60 42 15
60 43 32
60 44 42
60 45 25
60 46 41
60 47 13
60 48 54
60 49 44
60 50 57
60 51 8
60 52 16
60 53 10
60 54 57
60 55 14
60 56 26
60 57 28
60 58 22
60 59 44
